************************************************************************
file with basedata            : md381_.bas
initial value random generator: 25739
************************************************************************
projects                      :  1
jobs (incl. supersource/sink ):  22
horizon                       :  162
RESOURCES
  - renewable                 :  2   R
  - nonrenewable              :  2   N
  - doubly constrained        :  0   D
************************************************************************
PROJECT INFORMATION:
pronr.  #jobs rel.date duedate tardcost  MPM-Time
    1     20      0       29       10       29
************************************************************************
PRECEDENCE RELATIONS:
jobnr.    #modes  #successors   successors
   1        1          3           2   3   4
   2        3          3           5  11  16
   3        3          3           5   7  10
   4        3          1           8
   5        3          2           6  17
   6        3          3          14  18  19
   7        3          1           9
   8        3          2          11  13
   9        3          3          12  14  16
  10        3          2          11  12
  11        3          2          14  19
  12        3          2          17  21
  13        3          2          16  18
  14        3          1          15
  15        3          2          20  21
  16        3          1          17
  17        3          2          19  20
  18        3          2          20  21
  19        3          1          22
  20        3          1          22
  21        3          1          22
  22        1          0        
************************************************************************
REQUESTS/DURATIONS:
jobnr. mode duration  R 1  R 2  N 1  N 2
------------------------------------------------------------------------
  1      1     0       0    0    0    0
  2      1     1       9    6    6    8
         2     3       9    5    4    8
         3     5       9    3    4    7
  3      1     3       5    4    4    7
         2     3       5    5    4    6
         3     9       5    4    4    4
  4      1     2      10    4   10    9
         2     8       9    4    9    7
         3    10       9    3    9    7
  5      1     5       8    8    5   10
         2     7       7    8    5    6
         3     9       3    6    3    2
  6      1     5       9   10    6    4
         2     6       8    9    6    4
         3     7       6    8    5    4
  7      1     3       7    7    3    8
         2     5       6    5    3    8
         3    10       4    2    2    8
  8      1     3       7    7    4    7
         2     3       8    7    3    7
         3     7       5    7    2    3
  9      1     3       7    7    7    6
         2     5       3    4    5    6
         3     5       2    2    7    6
 10      1     5       8    7    2    8
         2     6       7    6    2    8
         3     9       5    4    1    7
 11      1     5       9    8    7    5
         2     7       9    8    5    5
         3     9       9    7    5    5
 12      1     3       7    9    7    3
         2     5       7    9    6    2
         3     8       6    9    4    2
 13      1     1       4    5    7    4
         2     4       2    5    7    4
         3     9       1    4    3    3
 14      1     5       7   10   10    9
         2     8       5    9    6    8
         3     8       4    9    8    7
 15      1     9       9    5    9    8
         2     9       8    8    8    6
         3    10       7    2    6    5
 16      1     2       7    7    5    7
         2     5       7    6    5    7
         3     6       7    4    5    7
 17      1     3       6    9    3    4
         2     4       4    8    3    4
         3     6       4    8    2    1
 18      1     5       3    9   10    3
         2     8       2    5    7    2
         3     9       1    5    7    2
 19      1     2       7    3    4    8
         2     4       5    3    4    5
         3     9       3    3    4    5
 20      1     2       6    4   10    7
         2     3       6    3    8    6
         3     8       6    1    8    5
 21      1     2       3    4    7    7
         2     9       2    3    4    5
         3     9       1    3    7    5
 22      1     0       0    0    0    0
************************************************************************
RESOURCEAVAILABILITIES:
  R 1  R 2  N 1  N 2
   15   15  126  132
************************************************************************
MAXIMAL LAGS:
from  to  type  delay
    1   12   ES      0
    1    2   ES      0
    2   12   ES      0
    1    3   ES      0
    3   12   ES      0
    1    4   ES      0
    4   12   ES      0
    1    5   ES      0
    5   12   ES      0
    1    6   ES      0
    6   12   ES      0
    1    7   ES      0
    7   12   ES      0
    1    8   ES      0
    8   12   ES      0
    1    9   ES      0
    9   12   ES      0
    1   10   ES      0
   10   12   ES      0
    1   11   ES      0
   11   12   ES      0
    1   12   ES      0
    2    5   SS     -8
    2    5   SE     -4
    2    5   ES     12
    2    5   EE     -3
    2   11   SS     -2
    2   11   SE     -8
    2   11   ES     -7
    2   11   EE      3
    2   16   SS     -1
    2   16   SE      7
    2   16   ES     -4
    2   16   EE     -8
    3    5   SS      0
    3    5   SE      3
    3    5   ES     -5
    3    5   EE     -8
    3    7   SS     10
    3    7   SE     10
    3    7   ES     10
    3    7   EE     10
    3   10   SS      3
    3   10   SE     -7
    3   10   ES     -7
    3   10   EE     -8
    4    8   SS     -9
    4    8   SE     -2
    4    8   ES     -1
    4    8   EE     -5
    5    6   SS     -8
    5    6   SE     -2
    5    6   ES    -11
    5    6   EE     12
    5   17   SS     -9
    5   17   SE      0
    5   17   ES      7
    5   17   EE      6
    6   14   SS     -6
    6   14   SE     12
    6   14   ES     -7
    6   14   EE      6
    6   18   SS      2
    6   18   SE     -4
    6   18   ES     -1
    6   18   EE     -9
    6   19   SS    -10
    6   19   SE     10
    6   19   ES      9
    6   19   EE      0
    7    9   SS     -2
    7    9   SE     10
    7    9   ES     12
    7    9   EE    -10
    8   11   SS      1
    8   11   SE    -12
    8   11   ES      5
    8   11   EE      0
    8   13   SS     -7
    8   13   SE     12
    8   13   ES     -3
    8   13   EE      6
    9   14   SS     -2
    9   14   SE     -9
    9   14   ES     -5
    9   14   EE     -6
    9   16   SS      6
    9   16   SE      1
    9   16   ES      1
    9   16   EE     11
   10   11   SS    -12
   10   11   SE     11
   10   11   ES     -2
   10   11   EE      2
   11   14   SS     -2
   11   14   SE     -8
   11   14   ES      8
   11   14   EE      6
   11   19   SS      0
   11   19   SE      0
   11   19   ES     11
   11   19   EE     -3
   12   17   SS      3
   12   17   SE    -10
   12   17   ES      9
   12   17   EE    -10
   12   21   SS      4
   12   21   SE    -10
   12   21   ES     -6
   12   21   EE     -8
   13   16   SS      9
   13   16   SE    -12
   13   16   ES      2
   13   16   EE     -8
   13   18   SS     -6
   13   18   SE     11
   13   18   ES      6
   13   18   EE     -9
   14   15   SS      6
   14   15   SE     10
   14   15   ES    -10
   14   15   EE      5
   15   20   SS     -4
   15   20   SE      0
   15   20   ES     -2
   15   20   EE     -1
   15   21   SS    -11
   15   21   SE     12
   15   21   ES      1
   15   21   EE     -6
   16   17   SS      1
   16   17   SE      6
   16   17   ES     10
   16   17   EE      9
   17   19   SS      4
   17   19   SE     -2
   17   19   ES    -10
   17   19   EE      0
   17   20   SS      2
   17   20   SE     11
   17   20   ES      1
   17   20   EE      8
   18   20   SS     -1
   18   20   SE     -1
   18   20   ES      7
   18   20   EE      7
   18   21   SS     12
   18   21   SE      6
   18   21   ES    -10
   18   21   EE      7
   19   22   SS      0
   19   22   SE      1
   19   22   ES      6
   19   22   EE      2
   20   22   SS      0
   20   22   SE    -11
   20   22   ES     11
   20   22   EE     -7
   21   22   SS     -8
   21   22   SE     -6
   22   21   SE      0
   21   22   ES      0
   21   22   EE     -4
************************************************************************
